NAME : instances/clustered-mixed-tsp/instance-55.tsp
COMMENT : No Comment
TYPE : TSP
DIMENSION: 40
EDGE_WEIGHT_TYPE : EUC_2D
NODE_COORD_SECTION
1 3424 8628 
2 8280 6117 
3 5066 4431 
4 7981 6705 
5 125 2231 
6 1182 8351 
7 48 2895 
8 7481 6530 
9 161 2336 
10 7464 6617 
11 5109 4254 
12 8472 5209 
13 690 2237 
14 6056 3954 
15 3754 8957 
16 2777 2262 
17 492 2626 
18 4956 4465 
19 4874 4177 
20 5337 4639 
21 7650 6719 
22 672 2990 
23 2587 50 
24 3759 8514 
25 8197 6168 
26 5716 4298 
27 98 2723 
28 721 2938 
29 7450 5811 
30 8531 5577 
31 8264 6680 
32 5079 4369 
33 5164 4077 
34 8105 6524 
35 8256 6283 
36 5658 3783 
37 1674 8186 
38 2884 1365 
39 5644 4022 
40 6163 3230 
EOF
